Minimize
-1 l1194 + -1 l1581 + -1 l1190 + -1 l1573
 + -1 l1192 + -1 l2292 + -1 l1196 + -1 l2294
 + -1 l1577 + -1 l2291 + -1 l1186 + -1 l2293
 + -1 l1198 + -1 l1570 + -1 l1568 + -1 l1571
 + -1 l1569 + -1 l1576 + -1 l1578 + -1 l1580
 + -1 l1575 + -1 l1184 + -1 l1574 + -1 l1188
 + -1 l1579 + -1 l1567 + -1 l1572 + -1 l1582
 + 1 u1194 + 1 u1581 + 1 u1190 + 1 u1573
 + 1 u1192 + 1 u2292 + 1 u1196 + 1 u2294
 + 1 u1577 + 1 u2291 + 1 u1186 + 1 u2293
 + 1 u1198 + 1 u1570 + 1 u1568 + 1 u1571
 + 1 u1569 + 1 u1576 + 1 u1578 + 1 u1580
 + 1 u1575 + 1 u1184 + 1 u1574 + 1 u1188
 + 1 u1579 + 1 u1567 + 1 u1572 + 1 u1582


Subject To
C0: 1 x1194 + -1 x1581 <= -1156
C1: 1 x1194 + -1 x1190 <= -1156
C2: -1 x1194 + 1 x1573 <= -346
C3: -1 x1194 + 1 x2292 <= -316
C4: -1 x1194 + 1 x2294 <= -316
C5: -1 x1194 + 1 x1577 <= -346
C6: -1 x1194 + 1 x2291 <= -316
C7: -1 x1194 + 1 x2293 <= -316
C8: -1 x1194 + 1 x1570 <= -346
C9: -1 x1194 + 1 x1568 <= -346
C10: -1 x1581 + 1 x1573 <= -346
C11: -1 x1581 + 1 x1192 <= -1156
C12: -1 x1581 + 1 x2292 <= -316
C13: -1 x1581 + 1 x2294 <= -316
C14: -1 x1581 + 1 x1577 <= -346
C15: -1 x1581 + 1 x2291 <= -316
C16: -1 x1581 + 1 x2293 <= -316
C17: -1 x1581 + 1 x1198 <= -1156
C18: -1 x1581 + 1 x1570 <= -346
C19: -1 x1581 + 1 x1568 <= -346
C20: -1 x1581 + 1 x1571 <= -346
C21: -1 x1581 + 1 x1578 <= -346
C22: -1 x1190 + 1 x1573 <= -346
C23: -1 x1190 + 1 x1192 <= -1156
C24: -1 x1190 + 1 x2292 <= -316
C25: -1 x1190 + 1 x2294 <= -316
C26: -1 x1190 + 1 x1577 <= -346
C27: -1 x1190 + 1 x2291 <= -316
C28: -1 x1190 + 1 x1186 <= -1156
C29: -1 x1190 + 1 x2293 <= -316
C30: -1 x1190 + 1 x1198 <= -1156
C31: -1 x1190 + 1 x1570 <= -346
C32: -1 x1190 + 1 x1568 <= -346
C33: -1 x1190 + 1 x1571 <= -346
C34: -1 x1190 + 1 x1569 <= -346
C35: -1 x1190 + 1 x1578 <= -346
C36: -1 x1190 + 1 x1580 <= -346
C37: -1 x1190 + 1 x1574 <= -346
C38: -1 x1190 + 1 x1582 <= -346
C39: 1 x1573 + -1 x1192 <= -346
C40: -1 x1573 + 1 x2292 <= -316
C41: 1 x1573 + -1 x1196 <= -346
C42: 1 x1573 + -1 x1186 <= -346
C43: 1 x1573 + -1 x1570 <= -346
C44: 1 x1573 + -1 x1576 <= -346
C45: 1 x1573 + -1 x1575 <= -346
C46: 1 x1573 + -1 x1572 <= -346
C47: -1 x1192 + 1 x2292 <= -316
C48: 1 x1192 + -1 x1196 <= -1156
C49: -1 x1192 + 1 x2294 <= -316
C50: -1 x1192 + 1 x1577 <= -346
C51: -1 x1192 + 1 x2291 <= -316
C52: -1 x1192 + 1 x2293 <= -316
C53: -1 x1192 + 1 x1198 <= -1156
C54: -1 x1192 + 1 x1570 <= -346
C55: -1 x1192 + 1 x1568 <= -346
C56: -1 x1192 + 1 x1571 <= -346
C57: 1 x2292 + -1 x1196 <= -316
C58: 1 x2292 + -1 x1186 <= -316
C59: 1 x2292 + -1 x1570 <= -316
C60: 1 x2292 + -1 x1576 <= -316
C61: 1 x2292 + -1 x1575 <= -316
C62: 1 x2292 + -1 x1572 <= -316
C63: -1 x1196 + 1 x2294 <= -316
C64: -1 x1196 + 1 x1577 <= -346
C65: -1 x1196 + 1 x2291 <= -316
C66: -1 x1196 + 1 x1186 <= -1156
C67: -1 x1196 + 1 x2293 <= -316
C68: -1 x1196 + 1 x1198 <= -1156
C69: -1 x1196 + 1 x1570 <= -346
C70: -1 x1196 + 1 x1568 <= -346
C71: -1 x1196 + 1 x1571 <= -346
C72: -1 x1196 + 1 x1569 <= -346
C73: -1 x1196 + 1 x1578 <= -346
C74: -1 x1196 + 1 x1580 <= -346
C75: -1 x1196 + 1 x1574 <= -346
C76: -1 x1196 + 1 x1582 <= -346
C77: 1 x2294 + -1 x1186 <= -316
C78: 1 x2294 + -1 x1570 <= -316
C79: 1 x2294 + -1 x1576 <= -316
C80: 1 x2294 + -1 x1575 <= -316
C81: 1 x2294 + -1 x1572 <= -316
C82: 1 x1577 + -1 x2291 <= -346
C83: 1 x1577 + -1 x1186 <= -346
C84: 1 x1577 + -1 x1198 <= -346
C85: 1 x1577 + -1 x1570 <= -346
C86: 1 x1577 + -1 x1576 <= -346
C87: 1 x1577 + -1 x1575 <= -346
C88: 1 x1577 + -1 x1184 <= -346
C89: 1 x1577 + -1 x1572 <= -346
C90: 1 x2291 + -1 x1186 <= -316
C91: 1 x2291 + -1 x1570 <= -316
C92: 1 x2291 + -1 x1576 <= -316
C93: 1 x2291 + -1 x1575 <= -316
C94: 1 x2291 + -1 x1572 <= -316
C95: -1 x1186 + 1 x2293 <= -316
C96: -1 x1186 + 1 x1198 <= -1156
C97: -1 x1186 + 1 x1570 <= -346
C98: -1 x1186 + 1 x1568 <= -346
C99: -1 x1186 + 1 x1571 <= -346
C100: -1 x1186 + 1 x1578 <= -346
C101: -1 x1186 + 1 x1580 <= -346
C102: 1 x1186 + -1 x1575 <= -1156
C103: 1 x1186 + -1 x1572 <= -1156
C104: 1 x2293 + -1 x1198 <= -316
C105: 1 x2293 + -1 x1570 <= -316
C106: 1 x2293 + -1 x1576 <= -316
C107: 1 x2293 + -1 x1575 <= -316
C108: 1 x2293 + -1 x1184 <= -316
C109: 1 x2293 + -1 x1572 <= -316
C110: -1 x1198 + 1 x1568 <= -346
C111: -1 x1198 + 1 x1571 <= -346
C112: 1 x1198 + -1 x1576 <= -1156
C113: 1 x1198 + -1 x1575 <= -1156
C114: 1 x1198 + -1 x1184 <= -1156
C115: 1 x1198 + -1 x1572 <= -1156
C116: -1 x1570 + 1 x1568 <= -346
C117: 1 x1570 + -1 x1575 <= -346
C118: 1 x1570 + -1 x1572 <= -346
C119: 1 x1568 + -1 x1569 <= -346
C120: 1 x1568 + -1 x1576 <= -346
C121: 1 x1568 + -1 x1575 <= -346
C122: 1 x1568 + -1 x1184 <= -346
C123: 1 x1568 + -1 x1579 <= -346
C124: 1 x1568 + -1 x1572 <= -346
C125: 1 x1571 + -1 x1569 <= -346
C126: 1 x1571 + -1 x1576 <= -346
C127: 1 x1571 + -1 x1575 <= -346
C128: 1 x1571 + -1 x1184 <= -346
C129: 1 x1571 + -1 x1579 <= -346
C130: 1 x1571 + -1 x1572 <= -346
C131: 1 x1569 + -1 x1576 <= -346
C132: -1 x1569 + 1 x1578 <= -346
C133: -1 x1569 + 1 x1580 <= -346
C134: 1 x1569 + -1 x1575 <= -346
C135: 1 x1569 + -1 x1184 <= -346
C136: -1 x1569 + 1 x1574 <= -346
C137: 1 x1569 + -1 x1572 <= -346
C138: -1 x1576 + 1 x1578 <= -346
C139: -1 x1576 + 1 x1580 <= -346
C140: 1 x1576 + -1 x1575 <= -346
C141: -1 x1576 + 1 x1574 <= -346
C142: -1 x1576 + 1 x1188 <= -1156
C143: 1 x1576 + -1 x1572 <= -346
C144: -1 x1576 + 1 x1582 <= -346
C145: 1 x1578 + -1 x1580 <= -346
C146: 1 x1578 + -1 x1575 <= -346
C147: 1 x1578 + -1 x1184 <= -346
C148: 1 x1578 + -1 x1188 <= -346
C149: 1 x1578 + -1 x1579 <= -346
C150: 1 x1578 + -1 x1567 <= -346
C151: 1 x1578 + -1 x1572 <= -346
C152: 1 x1580 + -1 x1575 <= -346
C153: 1 x1580 + -1 x1184 <= -346
C154: -1 x1580 + 1 x1574 <= -346
C155: 1 x1580 + -1 x1579 <= -346
C156: 1 x1580 + -1 x1567 <= -346
C157: 1 x1580 + -1 x1572 <= -346
C158: -1 x1575 + 1 x1184 <= -1156
C159: -1 x1575 + 1 x1574 <= -346
C160: -1 x1575 + 1 x1188 <= -1156
C161: -1 x1575 + 1 x1579 <= -346
C162: -1 x1575 + 1 x1567 <= -346
C163: -1 x1575 + 1 x1582 <= -346
C164: -1 x1184 + 1 x1574 <= -346
C165: -1 x1184 + 1 x1188 <= -1156
C166: -1 x1184 + 1 x1579 <= -346
C167: -1 x1184 + 1 x1567 <= -346
C168: 1 x1184 + -1 x1572 <= -1156
C169: -1 x1184 + 1 x1582 <= -346
C170: 1 x1574 + -1 x1188 <= -346
C171: 1 x1574 + -1 x1579 <= -346
C172: 1 x1574 + -1 x1567 <= -346
C173: 1 x1574 + -1 x1572 <= -346
C174: 1 x1188 + -1 x1579 <= -1156
C175: 1 x1188 + -1 x1567 <= -1156
C176: 1 x1188 + -1 x1572 <= -1156
C177: -1 x1188 + 1 x1582 <= -346
C178: -1 x1579 + 1 x1567 <= -346
C179: 1 x1579 + -1 x1572 <= -346
C180: -1 x1579 + 1 x1582 <= -346
C181: 1 x1567 + -1 x1572 <= -346
C182: -1 x1567 + 1 x1582 <= -346
C183: -1 x1572 + 1 x1582 <= -346
C184: -1 x1194 + 1 l1194 <= 0
C185: -1 x1194 + 1 u1194 >= 0
C186: -1 x1581 + 1 l1581 <= 0
C187: -1 x1581 + 1 u1581 >= 0
C188: -1 x1190 + 1 l1190 <= 0
C189: -1 x1190 + 1 u1190 >= 0
C190: -1 x1573 + 1 l1573 <= 0
C191: -1 x1573 + 1 u1573 >= 0
C192: -1 x1192 + 1 l1192 <= 0
C193: -1 x1192 + 1 u1192 >= 0
C194: -1 x2292 + 1 l2292 <= 0
C195: -1 x2292 + 1 u2292 >= 0
C196: -1 x1196 + 1 l1196 <= 0
C197: -1 x1196 + 1 u1196 >= 0
C198: -1 x2294 + 1 l2294 <= 0
C199: -1 x2294 + 1 u2294 >= 0
C200: -1 x1577 + 1 l1577 <= 0
C201: -1 x1577 + 1 u1577 >= 0
C202: -1 x2291 + 1 l2291 <= 0
C203: -1 x2291 + 1 u2291 >= 0
C204: -1 x1186 + 1 l1186 <= 0
C205: -1 x1186 + 1 u1186 >= 0
C206: -1 x2293 + 1 l2293 <= 0
C207: -1 x2293 + 1 u2293 >= 0
C208: -1 x1198 + 1 l1198 <= 0
C209: -1 x1198 + 1 u1198 >= 0
C210: -1 x1570 + 1 l1570 <= 0
C211: -1 x1570 + 1 u1570 >= 0
C212: -1 x1568 + 1 l1568 <= 0
C213: -1 x1568 + 1 u1568 >= 0
C214: -1 x1571 + 1 l1571 <= 0
C215: -1 x1571 + 1 u1571 >= 0
C216: -1 x1569 + 1 l1569 <= 0
C217: -1 x1569 + 1 u1569 >= 0
C218: -1 x1576 + 1 l1576 <= 0
C219: -1 x1576 + 1 u1576 >= 0
C220: -1 x1578 + 1 l1578 <= 0
C221: -1 x1578 + 1 u1578 >= 0
C222: -1 x1580 + 1 l1580 <= 0
C223: -1 x1580 + 1 u1580 >= 0
C224: -1 x1575 + 1 l1575 <= 0
C225: -1 x1575 + 1 u1575 >= 0
C226: -1 x1184 + 1 l1184 <= 0
C227: -1 x1184 + 1 u1184 >= 0
C228: -1 x1574 + 1 l1574 <= 0
C229: -1 x1574 + 1 u1574 >= 0
C230: -1 x1188 + 1 l1188 <= 0
C231: -1 x1188 + 1 u1188 >= 0
C232: -1 x1579 + 1 l1579 <= 0
C233: -1 x1579 + 1 u1579 >= 0
C234: -1 x1567 + 1 l1567 <= 0
C235: -1 x1567 + 1 u1567 >= 0
C236: -1 x1572 + 1 l1572 <= 0
C237: -1 x1572 + 1 u1572 >= 0
C238: -1 x1582 + 1 l1582 <= 0
C239: -1 x1582 + 1 u1582 >= 0
Bounds
0 <= x1194 <= 3993
0 <= x1581 <= 4804
0 <= x1190 <= 3993
0 <= x1573 <= 4804
0 <= x1192 <= 3993
0 <= x2292 <= 4833
0 <= x1196 <= 3993
0 <= x2294 <= 4833
0 <= x1577 <= 4804
0 <= x2291 <= 4833
0 <= x1186 <= 3993
0 <= x2293 <= 4833
0 <= x1198 <= 3993
0 <= x1570 <= 4804
0 <= x1568 <= 4804
0 <= x1571 <= 4804
0 <= x1569 <= 4804
0 <= x1576 <= 4804
0 <= x1578 <= 4804
0 <= x1580 <= 4804
0 <= x1575 <= 4804
0 <= x1184 <= 3993
0 <= x1574 <= 4804
0 <= x1188 <= 3993
0 <= x1579 <= 4804
0 <= x1567 <= 4804
0 <= x1572 <= 4804
0 <= x1582 <= 4804
0 <= l1194 <= 2171
0 <= l1581 <= 3326
0 <= l1190 <= 3556
0 <= l1573 <= 365
0 <= l1192 <= 2297
0 <= l2292 <= 60
0 <= l1196 <= 3296
0 <= l2294 <= 60
0 <= l1577 <= 60
0 <= l2291 <= 183
0 <= l1186 <= 3934
0 <= l2293 <= 63
0 <= l1198 <= 2436
0 <= l1570 <= 1896
0 <= l1568 <= 507
0 <= l1571 <= 60
0 <= l1569 <= 1711
0 <= l1576 <= 2837
0 <= l1578 <= 60
0 <= l1580 <= 60
0 <= l1575 <= 4555
0 <= l1184 <= 2909
0 <= l1574 <= 60
0 <= l1188 <= 438
0 <= l1579 <= 2074
0 <= l1567 <= 1552
0 <= l1572 <= 4744
0 <= l1582 <= 212
2171 <= u1194 <= 5150
3326 <= u1581 <= 5150
3556 <= u1190 <= 5150
365 <= u1573 <= 5150
2297 <= u1192 <= 5150
60 <= u2292 <= 5150
3296 <= u1196 <= 5150
60 <= u2294 <= 5150
60 <= u1577 <= 5150
183 <= u2291 <= 5150
3934 <= u1186 <= 5150
63 <= u2293 <= 5150
2436 <= u1198 <= 5150
1896 <= u1570 <= 5150
507 <= u1568 <= 5150
60 <= u1571 <= 5150
1711 <= u1569 <= 5150
2837 <= u1576 <= 5150
60 <= u1578 <= 5150
60 <= u1580 <= 5150
4555 <= u1575 <= 5150
2909 <= u1184 <= 5150
60 <= u1574 <= 5150
438 <= u1188 <= 5150
2074 <= u1579 <= 5150
1552 <= u1567 <= 5150
4744 <= u1572 <= 5150
212 <= u1582 <= 5150
Generals
End
